db/inputs/311662664918963256151637414365692331409.smt2
(set-logic QF_FP)
(declare-const x0 (_ FloatingPoint 11 53))
(declare-const x1 (_ FloatingPoint 11 53))
(declare-const x2 (_ FloatingPoint 11 53))
(declare-const x3 (_ FloatingPoint 11 53))
(declare-const x4 (_ FloatingPoint 11 53))
(assert (fp.leq (fp.sub RNE x2 x0) (fp.div RNE x4 x1)))
(assert (fp.leq (fp.div RNE x2 x2) (fp.mul RNE x2 x3)))
(assert (fp.gt (fp.neg x1) (fp.sub RNE x1 x3)))
(assert (fp.gt (fp.sub RNE x3 x1) (fp.sub RNE x3 x0)))
(assert (fp.eq (fp.neg x0) (fp.mul RNE x1 x2)))
(assert (fp.leq (fp.add RNE x4 x0) (fp.add RNE x1 x3)))
(assert (fp.gt (fp.sub RNE x3 x0) (fp.mul RNE x1 x3)))
(assert (fp.leq (fp.neg x1) (fp.mul RNE x2 x4)))
(assert (fp.leq (fp.mul RNE x0 x1) (fp.sub RNE x1 x1)))
(assert (fp.geq (fp.mul RNE x0 x3) (fp.mul RNE x0 x3)))
(assert (fp.lt (fp.div RNE x4 x0) (fp.neg x3)))
(check-sat)
