db/data/311662664918963256151637414365692331409.z3.out
-------------------
2500.109965018
